N = 12;
H = 5;
T = 2;

avail = array3d(1..N, 1..H, 1..T, [2, 6, 8, 5, 4, 4, 9, 5, 1, 4, 9, 8, 2, 4, 3, 8, 10, 4, 6, 4, 2, 7, 10, 0, 10, 8, 5, 3, 10, 1, 10, 3, 2, 6, 10, 6, 10, 0, 10, 1, 1, 9, 0, 8, 3, 7, 3, 8, 0, 10, 9, 1, 1, 1, 3, 2, 6, 2, 8, 7, 1, 8, 2, 6, 4, 4, 7, 9, 0, 7, 2, 5, 3, 3, 7, 0, 8, 6, 8, 3, 3, 6, 2, 5, 10, 9, 6, 10, 7, 1, 9, 10, 2, 3, 10, 8, 8, 1, 1, 1, 2, 7, 5, 10, 2, 0, 2, 4, 5, 5, 9, 2, 10, 1, 0, 3, 7, 9, 5, 3]);

r = array2d(1..H, 1..T, [2, 6, 2, 2, 4, 2, 5, 3, 2, 2]);
